Using license file /home/benedond/gurobi.lic
Using gurobi.env file
Set parameter Threads to value 1
Academic license - for non-commercial use only
Changed value of parameter TimeLimit to 300.0
   Prev: inf  Min: 0.0  Max: inf  Default: inf
Gurobi Optimizer version 9.0.1 build v9.0.1rc0 (linux64)
Optimize a model with 5529 rows, 5278 columns and 25846 nonzeros
Model fingerprint: 0x0612402b
Variable types: 100 continuous, 5178 integer (5178 binary)
Coefficient statistics:
  Matrix range     [2e-01, 5e+02]
  Objective range  [3e-03, 2e-01]
  Bounds range     [1e+00, 1e+00]
  RHS range        [1e+00, 2e+03]
Found heuristic solution: objective 4.9426172
Presolve removed 122 rows and 99 columns
Presolve time: 0.09s
Presolved: 5407 rows, 5179 columns, 25429 nonzeros
Variable types: 99 continuous, 5080 integer (5080 binary)

Root relaxation: objective 2.185967e+00, 4986 iterations, 0.31 seconds

    Nodes    |    Current Node    |     Objective Bounds      |     Work
 Expl Unexpl |  Obj  Depth IntInf | Incumbent    BestBd   Gap | It/Node Time

     0     0    2.18597    0  289    4.94262    2.18597  55.8%     -    0s
H    0     0                       3.4320813    2.18597  36.3%     -    1s
     0     0    2.24945    0  227    3.43208    2.24945  34.5%     -    1s
     0     0    2.36896    0  210    3.43208    2.36896  31.0%     -    1s
     0     0    2.38171    0  220    3.43208    2.38171  30.6%     -    2s
     0     0    2.45569    0  278    3.43208    2.45569  28.4%     -    2s
     0     0    2.47328    0  255    3.43208    2.47328  27.9%     -    2s
     0     0    2.48131    0  223    3.43208    2.48131  27.7%     -    3s
     0     0    2.48317    0  222    3.43208    2.48317  27.6%     -    3s
     0     0    2.48325    0  242    3.43208    2.48325  27.6%     -    3s
     0     0    2.51953    0  247    3.43208    2.51953  26.6%     -    3s
     0     0    2.52958    0  281    3.43208    2.52958  26.3%     -    3s
     0     0    2.53213    0  264    3.43208    2.53213  26.2%     -    3s
     0     0    2.53303    0  287    3.43208    2.53303  26.2%     -    3s
     0     0    2.53342    0  266    3.43208    2.53342  26.2%     -    3s
     0     0    2.53351    0  257    3.43208    2.53351  26.2%     -    3s
     0     0    2.55199    0  260    3.43208    2.55199  25.6%     -    3s
     0     0    2.55537    0  282    3.43208    2.55537  25.5%     -    3s
     0     0    2.55759    0  298    3.43208    2.55759  25.5%     -    4s
     0     0    2.55794    0  281    3.43208    2.55794  25.5%     -    4s
     0     0    2.55799    0  265    3.43208    2.55799  25.5%     -    4s
     0     0    2.56736    0  271    3.43208    2.56736  25.2%     -    4s
     0     0    2.57114    0  254    3.43208    2.57114  25.1%     -    4s
     0     0    2.57156    0  263    3.43208    2.57156  25.1%     -    4s
     0     0    2.57182    0  264    3.43208    2.57182  25.1%     -    4s
     0     0    2.57184    0  265    3.43208    2.57184  25.1%     -    4s
     0     0    2.58288    0  286    3.43208    2.58288  24.7%     -    4s
     0     0    2.58880    0  276    3.43208    2.58880  24.6%     -    4s
     0     0    2.59012    0  260    3.43208    2.59012  24.5%     -    4s
     0     0    2.59031    0  300    3.43208    2.59031  24.5%     -    4s
     0     0    2.59901    0  290    3.43208    2.59901  24.3%     -    5s
     0     0    2.60359    0  289    3.43208    2.60359  24.1%     -    5s
     0     0    2.60430    0  281    3.43208    2.60430  24.1%     -    5s
     0     0    2.60481    0  283    3.43208    2.60481  24.1%     -    5s
     0     0    2.60491    0  283    3.43208    2.60491  24.1%     -    5s
     0     0    2.60782    0  265    3.43208    2.60782  24.0%     -    5s
     0     0    2.60904    0  245    3.43208    2.60904  24.0%     -    5s
     0     0    2.60913    0  264    3.43208    2.60913  24.0%     -    5s
     0     0    2.61437    0  252    3.43208    2.61437  23.8%     -    5s
     0     0    2.61633    0  304    3.43208    2.61633  23.8%     -    5s
     0     0    2.61708    0  282    3.43208    2.61708  23.7%     -    5s
     0     0    2.61715    0  301    3.43208    2.61715  23.7%     -    5s
     0     0    2.61927    0  314    3.43208    2.61927  23.7%     -    6s
     0     0    2.62050    0  289    3.43208    2.62050  23.6%     -    6s
     0     0    2.62083    0  290    3.43208    2.62083  23.6%     -    6s
     0     0    2.62118    0  314    3.43208    2.62118  23.6%     -    6s
     0     0    2.62130    0  308    3.43208    2.62130  23.6%     -    6s
     0     0    2.62289    0  283    3.43208    2.62289  23.6%     -    6s
     0     0    2.62424    0  329    3.43208    2.62424  23.5%     -    6s
     0     0    2.62458    0  315    3.43208    2.62458  23.5%     -    6s
     0     0    2.62674    0  315    3.43208    2.62674  23.5%     -    6s
     0     0    2.62787    0  307    3.43208    2.62787  23.4%     -    6s
     0     0    2.62823    0  305    3.43208    2.62823  23.4%     -    6s
     0     0    2.62827    0  332    3.43208    2.62827  23.4%     -    6s
     0     0    2.62965    0  247    3.43208    2.62965  23.4%     -    6s
     0     0    2.63021    0  259    3.43208    2.63021  23.4%     -    7s
     0     0    2.63035    0  264    3.43208    2.63035  23.4%     -    7s
     0     0    2.63229    0  295    3.43208    2.63229  23.3%     -    7s
     0     0    2.63229    0  295    3.43208    2.63229  23.3%     -    9s
H    0     0                       3.3538326    2.63229  21.5%     -   13s
     0     2    2.63234    0  295    3.35383    2.63234  21.5%     -   13s
     6     8    2.68858    5  261    3.35383    2.63341  21.5%   544   15s
    22    24    2.87768   14  233    3.35383    2.63341  21.5%   950   20s
H   27    27                       3.3033302    2.63341  20.3%   886   26s
    70    72    2.81812   49  263    3.30333    2.63341  20.3%   577   30s
   161   148    2.71008    1  237    3.30333    2.63507  20.2%   434   35s
   267   252    3.19496   80  126    3.30333    2.63507  20.2%   366   40s
H  300   270                       3.2977704    2.63507  20.1%   347   44s
H  322   287                       3.2953015    2.63507  20.0%   331   45s
H  363   307                       3.2909857    2.63507  19.9%   306   50s
   427   373    2.92632   56  174    3.29099    2.63741  19.9%   316   55s
H  510   442                       3.2869283    2.63741  19.8%   302   61s
   514   445    2.82516   34  229    3.28693    2.63741  19.8%   300   65s
   526   453    2.90420   22  392    3.28693    2.67926  18.5%   293   70s
   540   462    3.25572  107  319    3.28693    2.69315  18.1%   285   75s
   542   464    3.25631  114  357    3.28693    2.69537  18.0%   284   86s
   547   467    3.21607  120  379    3.28693    2.70180  17.8%   282   90s
   558   474    2.91808   23  407    3.28693    2.71190  17.5%   276   95s
   570   482    3.24963   95  463    3.28693    2.72077  17.2%   270  100s
   581   490    2.82204   48  340    3.28693    2.72669  17.0%   265  105s
   592   497    2.82204   48  441    3.28693    2.73093  16.9%   260  110s
   602   504    3.10282   73  465    3.28693    2.73405  16.8%   256  115s
   612   510    3.07542   48  433    3.28693    2.73810  16.7%   252  120s
   624   518    2.74436   22  405    3.28693    2.74224  16.6%   247  125s
   633   524    2.81425   25  430    3.28693    2.74512  16.5%   244  130s
   642   530    3.25631  114  402    3.28693    2.74738  16.4%   240  135s
   650   536    3.00499   40  472    3.28693    2.74936  16.4%   237  140s
   659   542    2.82224   53  482    3.28693    2.75142  16.3%   234  145s
H  664   519                       3.2528613    2.75158  15.4%   402  147s
   667   521    3.24359  100  236    3.25286    2.75158  15.4%   400  150s
   676   527    2.85253   38  436    3.25286    2.75158  15.4%   394  155s
H  679   502                       3.2477895    2.75325  15.2%   393  166s
   686   506    3.08905   49  444    3.24779    2.75493  15.2%   389  170s
   695   512    2.75633   11  424    3.24779    2.75633  15.1%   384  175s
   703   518    2.82056   25  432    3.24779    2.75745  15.1%   379  180s
   713   524    2.81744   31  500    3.24779    2.75860  15.1%   374  185s
   716   526    2.81490   30  483    3.24779    2.75886  15.1%   372  201s
   719   530    2.75891   28  472    3.24779    2.75891  15.1%   438  217s
   720   531    2.83075   28  297    3.24779    2.75891  15.1%   441  225s
   721   532    2.75892   29  524    3.24779    2.75892  15.1%   441  234s
   722   532    2.97313   29  350    3.24779    2.75892  15.1%   445  239s
   723   533    2.75906   30  493    3.24779    2.75892  15.1%   445  240s
   726   535    2.76644   31  424    3.24779    2.75911  15.0%   451  246s
   731   538    2.75998   34  466    3.24779    2.75971  15.0%   459  250s
   740   544    3.00478   38  319    3.24779    2.76258  14.9%   470  255s
   745   548    2.76565   41  416    3.24779    2.76375  14.9%   474  270s
   750   551    2.89472   43  383    3.24779    2.76561  14.8%   481  275s
   758   556    2.84088   47  233    3.24779    2.76561  14.8%   493  280s
   764   560    2.97463   50  359    3.24779    2.76561  14.8%   501  285s
   772   566    2.84297   54  345    3.24779    2.76561  14.8%   511  290s
   779   570    2.83517   58  305    3.24779    2.76561  14.8%   520  295s
   785   574    2.87190   61  297    3.24779    2.76561  14.8%   534  300s

Cutting planes:
  Gomory: 8
  Cover: 12
  Implied bound: 9
  Projected implied bound: 1
  Clique: 6
  MIR: 229
  StrongCG: 4
  Flow cover: 604
  GUB cover: 4
  RLT: 15
  Relax-and-lift: 292

Explored 786 nodes (445996 simplex iterations) in 300.00 seconds
Thread count was 1 (of 4 available processors)

Solution count 10: 3.24779 3.25286 3.28693 ... 4.94262

Time limit reached
Best objective 3.247789494016e+00, best bound 2.765607032518e+00, gap 14.8465%
